Gurobi Optimizer version 9.1.2 build v9.1.2rc0 (linux64)
Thread count: 36 physical cores, 72 logical processors, using up to 32 threads
Optimize a model with 12 rows, 57 columns and 590 nonzeros
Model fingerprint: 0xf32eec78
Model has 47 quadratic constraints
Coefficient statistics:
  Matrix range     [2e-05, 3e+00]
  QMatrix range    [1e+00, 1e+00]
  QLMatrix range   [1e+00, 1e+00]
  Objective range  [8e-03, 7e-01]
  Bounds range     [1e+00, 1e+00]
  RHS range        [1e+00, 1e+00]
Presolve removed 9 rows and 0 columns

Continuous model is non-convex -- solving as a MIP.

Presolve removed 9 rows and 0 columns
Presolve time: 0.00s
Presolved: 189 rows, 57 columns, 443 nonzeros
Presolved model has 47 bilinear constraint(s)
Variable types: 57 continuous, 0 integer (0 binary)

Root relaxation: objective -1.743721e+00, 44 iterations, 0.00 seconds

    Nodes    |    Current Node    |     Objective Bounds      |     Work
 Expl Unexpl |  Obj  Depth IntInf | Incumbent    BestBd   Gap | It/Node Time

     0     0   -1.74372    0   38          -   -1.74372      -     -    0s
H    0     0                       0.6147548   -1.74372   384%     -    0s
     0     0   -1.64739    0    1    0.61475   -1.64739   368%     -    0s
H    0     0                      -1.6450460   -1.64739  0.14%     -    0s
     0     0     cutoff    0        -1.64505   -1.64505  0.00%     -    0s

Cutting planes:
  RLT: 25
  BQP: 3

Explored 1 nodes (76 simplex iterations) in 0.01 seconds
Thread count was 32 (of 72 available processors)

Solution count 2: -1.64505 0.614755 
No other solutions better than -1.64505

Optimal solution found (tolerance 1.00e-04)
Best objective -1.645045978473e+00, best bound -1.645045978473e+00, gap 0.0000%

User-callback calls 78, time in user-callback 0.00 sec
Gurobi Optimizer version 9.1.2 build v9.1.2rc0 (linux64)
Thread count: 36 physical cores, 72 logical processors, using up to 32 threads
Optimize a model with 24 rows, 120 columns and 2480 nonzeros
Model fingerprint: 0x04a16fa9
Model has 100 quadratic constraints
Coefficient statistics:
  Matrix range     [8e-06, 4e+00]
  QMatrix range    [1e+00, 1e+00]
  QLMatrix range   [1e+00, 1e+00]
  Objective range  [5e-03, 1e+00]
  Bounds range     [1e+00, 1e+00]
  RHS range        [1e+00, 1e+00]
Presolve removed 17 rows and 0 columns

Continuous model is non-convex -- solving as a MIP.

Presolve removed 17 rows and 0 columns
Presolve time: 0.00s
Presolved: 407 rows, 120 columns, 1232 nonzeros
Presolved model has 100 bilinear constraint(s)
Variable types: 120 continuous, 0 integer (0 binary)

Root relaxation: objective -7.245334e+00, 122 iterations, 0.00 seconds

    Nodes    |    Current Node    |     Objective Bounds      |     Work
 Expl Unexpl |  Obj  Depth IntInf | Incumbent    BestBd   Gap | It/Node Time

     0     0   -7.24533    0  100          -   -7.24533      -     -    0s
H    0     0                       1.5815900   -7.24533   558%     -    0s
     0     0   -4.83209    0   90    1.58159   -4.83209   406%     -    0s
H    0     0                       0.6134468   -4.83209   888%     -    0s
     0     0   -4.82936    0   90    0.61345   -4.82936   887%     -    0s
     0     0   -4.33210    0   90    0.61345   -4.33210   806%     -    0s
H    0     0                      -0.4377825   -4.33210   890%     -    0s
     0     0   -4.24686    0   90   -0.43778   -4.24686   870%     -    0s
     0     0   -4.12075    0  100   -0.43778   -4.12075   841%     -    0s
     0     0   -4.11190    0   90   -0.43778   -4.11190   839%     -    0s
     0     0   -4.08762    0   90   -0.43778   -4.08762   834%     -    0s
     0     0   -4.08739    0   90   -0.43778   -4.08739   834%     -    0s
     0     0   -4.07772    0  100   -0.43778   -4.07772   831%     -    0s
     0     0   -4.07503    0   90   -0.43778   -4.07503   831%     -    0s
     0     0   -4.06988    0   90   -0.43778   -4.06988   830%     -    0s
H    0     0                      -1.8552964   -4.06988   119%     -    0s
H    0     0                      -1.9532321   -4.06988   108%     -    0s
     0     2   -4.06988    0   90   -1.95323   -4.06988   108%     -    0s
* 1156  1185              43      -1.9561687   -3.53957  80.9%  29.9    0s
* 1158  1185              37      -1.9608520   -3.53957  80.5%  29.9    0s
* 1183  1185              24      -2.9212829   -3.53957  21.2%  29.4    0s
* 1577  1262              29      -3.2319319   -3.50023  8.30%  27.7    0s
* 1697  1262              25      -3.2336294   -3.50023  8.24%  27.9    0s
* 1722  1262              25      -3.2337384   -3.50023  8.24%  27.9    0s
* 1747  1262              26      -3.2337438   -3.50023  8.24%  27.9    0s
* 2270   728              25      -3.2343112   -3.27069  1.12%  23.1    0s
* 2271   728              25      -3.2343120   -3.27069  1.12%  23.1    0s
* 2314   728              25      -3.2356175   -3.27069  1.08%  22.9    0s
* 2341   728              25      -3.2488749   -3.27069  0.67%  22.8    0s
* 2342   728              25      -3.2488764   -3.27069  0.67%  22.8    0s
* 2683   662              18      -3.2555167   -3.27062  0.46%  20.0    0s
* 2686   662              20      -3.2555714   -3.27062  0.46%  20.0    0s
* 2687   662              20      -3.2555718   -3.27062  0.46%  19.9    0s
* 2692   662              18      -3.2701782   -3.27062  0.01%  19.9    0s
* 2714   662              17      -3.2706087   -3.27061  0.00%  19.8    0s

Cutting planes:
  RLT: 71
  BQP: 13
  PSD: 21

Explored 3223 nodes (57547 simplex iterations) in 0.70 seconds
Thread count was 32 (of 72 available processors)

Solution count 10: -3.27061 -3.27018 -3.25557 ... -3.23374
No other solutions better than -3.27061

Optimal solution found (tolerance 1.00e-04)
Best objective -3.270608684320e+00, best bound -3.270608684320e+00, gap 0.0000%

User-callback calls 6727, time in user-callback 0.00 sec



objective value: -3.270608684319771
objective bound: -3.270608684319771
x_opt: [0.0, 1.0, 1.0, 0.45126240317751437, 1.0, 0.0, 0.07440911739482681, 0.0, 0.17893850255691715, 1.0, 0.0, 0.0026198179707326054, 1.0, 1.0, 1.0, 0.0, 0.0, 0.0, 0.0, 0.0]
GUROBI solution time: 0.6973099708557129




